RT is False
Default write of storage_offers_DA.csv just to have a file (but constraint should be inactive)
Reading model...
...model read.
creating competitive generators file...
...competitive generators recorded.
Loading data...
.. day-ahead data with real-time VRE data read.
Compiling instance...
...instance created.
Creating Offer Mitigation (model will solve as dispatch if TRUE)...
...storage offer mitigation file created
Converting model to MPEC...
...converted
NOTE: initial MIP solve with only storage competitive to get feasible solution
Solving...

Welcome to IBM(R) ILOG(R) CPLEX(R) Interactive Optimizer 12.9.0.0
  with Simplex, Mixed Integer & Barrier Optimizers
5725-A06 5725-A29 5724-Y48 5724-Y49 5724-Y54 5724-Y55 5655-Y21
Copyright IBM Corp. 1988, 2019.  All Rights Reserved.

Type 'help' for a list of available commands.
Type 'help' followed by a command name for more
information on commands.

CPLEX> Logfile 'cplex.log' closed.
Logfile 'C:\Users\Luke\Desktop\competitiveMPEC_1.16\logs\tmp_x8pmsby.cplex.log' open.
CPLEX> New value for parallel optimization mode: -1
CPLEX> New value for mixed integer optimality gap tolerance: 0.01
CPLEX> New value for feasibility tolerance: 0.01
CPLEX> New value for deterministic time limit in ticks: 200000
CPLEX> Problem 'C:\Users\Luke\Desktop\competitiveMPEC_1.16\logs\tmp3cjzw6vt.pyomo.lp' read.
Read time = 0.19 sec. (13.35 ticks)
CPLEX> Problem name         : C:\Users\Luke\Desktop\competitiveMPEC_1.16\logs\tmp3cjzw6vt.pyomo.lp
Objective sense      : Maximize
Variables            :   53321  [Nneg: 49,  Box: 21806,  Free: 4368,
                                 Binary: 27098]
Objective nonzeros   :    8980
Linear constraints   :  122116  [Less: 40935,  Greater: 58612,  Equal: 22569]
  Nonzeros           :  288457
  RHS nonzeros       :   66934

Variables            : Min LB: -5000.000        Max UB: 5000.000       
Objective nonzeros   : Min   : 0.1750000        Max   : 772.4167       
Linear constraints   :
  Nonzeros           : Min   : 0.1750000        Max   : 2910000.       
  RHS nonzeros       : Min   : 0.1750000        Max   : 3000000.       
CPLEX> CPXPARAM_Parallel                                -1
CPXPARAM_Simplex_Tolerances_Feasibility          0.01
CPXPARAM_DetTimeLimit                            200000
CPXPARAM_MIP_Tolerances_MIPGap                   0.01
Tried aggregator 3 times.
MIP Presolve eliminated 88041 rows and 18945 columns.
MIP Presolve added 3372 rows and 0 columns.
MIP Presolve modified 24501 coefficients.
Aggregator did 12880 substitutions.
Reduced MIP has 24567 rows, 20940 columns, and 68799 nonzeros.
Reduced MIP has 8289 binaries, 0 generals, 0 SOSs, and 0 indicators.
Presolve time = 0.23 sec. (167.52 ticks)
Probing fixed 431 vars, tightened 5733 bounds.
Probing time = 0.06 sec. (21.13 ticks)
Tried aggregator 2 times.
MIP Presolve eliminated 966 rows and 871 columns.
MIP Presolve modified 3052 coefficients.
Aggregator did 45 substitutions.
Reduced MIP has 23556 rows, 20024 columns, and 65836 nonzeros.
Reduced MIP has 7856 binaries, 0 generals, 0 SOSs, and 0 indicators.
Presolve time = 0.09 sec. (87.96 ticks)
Probing fixed 0 vars, tightened 212 bounds.
Probing time = 0.08 sec. (21.15 ticks)
Clique table members: 38648.
MIP emphasis: balance optimality and feasibility.
MIP search method: dynamic search.
Parallel mode: opportunistic, using up to 24 threads.
Root relaxation solution time = 0.38 sec. (520.88 ticks)

        Nodes                                         Cuts/
   Node  Left     Objective  IInf  Best Integer    Best Bound    ItCnt     Gap

      0     0      -45.5696   389                    -45.5696     5973         
      0     0      -45.5696    16                     Cuts: 7     5976         
      0     0      -51.1045    13                    Cuts: 15     5980         
      0     0      -51.1045    13                  MIRcuts: 3     5980         
      0    15    infeasible                         Covers: 1     6141         
Elapsed time = 3.36 sec. (2332.71 ticks, tree = 0.02 MB, solutions = 0)
*    31+   42                       -20330.0122      -98.4642            99.52%
*   133    39      integral     0   -15583.3946      -98.4642     7162   99.37%
    617    32    -5019.8536     4     -502.3175     -116.8279    10915   76.74%
   1066   175     -478.9411     1     -502.3175     -116.8279    12086   76.74%
   1365   363     -373.0640     3     -502.3175     -130.8499    12641   73.95%
   1633   458     -489.4103     1     -502.3175     -130.8499    13467   73.95%
   1886   470        cutoff           -502.3175     -130.8499    13961   73.95%
   2141   479        cutoff           -502.3175     -130.8499    13732   73.95%
   2319   496        cutoff           -502.3175     -130.8499    26451   73.95%
   3195   611     -482.4425    75     -502.3175     -130.8499    39474   73.95%
Elapsed time = 9.59 sec. (5084.76 ticks, tree = 2.90 MB, solutions = 11)
   4025   588     -473.7211     5     -502.3175     -130.8499    40530   73.95%
   4761   552        cutoff           -502.3175     -130.8499    40370   73.95%
   5618   701        cutoff           -502.3175     -130.8499    41211   73.95%
   6180  1006     -493.4348     5     -502.3175     -130.8499    41951   73.95%
   6845  1420     -493.4348    32     -502.3175     -130.8499    50215   73.95%
   7659  1485     -493.4348   102     -502.3175     -130.8499    50478   73.95%
   8693  1057     -493.4348     9     -502.3175     -130.8499    54552   73.95%
  10178  1979     -494.5686  1235     -502.3175     -364.6871    56749   27.40%
  11784  2267     -501.4434     9     -502.3175     -364.6871    80492   27.40%
  13150  2554     -478.9411    89     -502.3175     -388.0901    92691   22.74%
Elapsed time = 24.78 sec. (14629.03 ticks, tree = 28.52 MB, solutions = 11)
  14027  3225     -478.9411     5     -502.3175     -388.0901   121330   22.74%
* 14459+ 4740                         -502.3175     -450.3931            10.34%
  14459  4746        cutoff           -502.3175     -450.3931   223211   10.34%

Cover cuts applied:  22
Implied bound cuts applied:  4
Flow cuts applied:  17
Mixed integer rounding cuts applied:  3
Zero-half cuts applied:  3
Gomory fractional cuts applied:  19

Root node processing (before b&c):
  Real time             =    3.02 sec. (2327.36 ticks)
Parallel b&c, 24 threads:
  Real time             =   26.41 sec. (16362.82 ticks)
  Sync time (average)   =    1.16 sec.
  Wait time (average)   =    0.04 sec.
                          ------------
Total (root+branch&cut) =   29.42 sec. (18690.18 ticks)

Solution pool: 12 solutions saved.

MIP - Integer optimal, tolerance (0.01/1e-06):  Objective = -5.0231753220e+02
Current MIP best bound = -4.9981673525e+02 (gap = 2.5008, 0.50%)
Solution time =   29.42 sec.  Iterations = 223798  Nodes = 14575 (6)
Deterministic time = 18690.34 ticks  (635.25 ticks/sec)

CPLEX> Incumbent solution written to file 'C:\Users\Luke\Desktop\competitiveMPEC_1.16\logs\tmpss08vlj7.cplex.sol'.
CPLEX> NOTE: no warmstart specified for MIP iteration, default behavior is true
NOTE: resolving with all competitive generators using storage-only solution to warmstart
Solving...

Welcome to IBM(R) ILOG(R) CPLEX(R) Interactive Optimizer 12.9.0.0
  with Simplex, Mixed Integer & Barrier Optimizers
5725-A06 5725-A29 5724-Y48 5724-Y49 5724-Y54 5724-Y55 5655-Y21
Copyright IBM Corp. 1988, 2019.  All Rights Reserved.

Type 'help' for a list of available commands.
Type 'help' followed by a command name for more
information on commands.

CPLEX> Logfile 'cplex.log' closed.
Logfile 'C:\Users\Luke\Desktop\competitiveMPEC_1.16\logs\tmppsprat5u.cplex.log' open.
CPLEX> New value for parallel optimization mode: -1
CPLEX> New value for mixed integer optimality gap tolerance: 0.01
CPLEX> New value for feasibility tolerance: 0.01
CPLEX> New value for deterministic time limit in ticks: 200000
CPLEX> Problem 'C:\Users\Luke\Desktop\competitiveMPEC_1.16\logs\tmpevwylmeg.pyomo.lp' read.
Read time = 0.19 sec. (13.38 ticks)
CPLEX> MIP start file 'C:\Users\Luke\Desktop\competitiveMPEC_1.16\logs\tmp0jj5yw6b.cplex.mst' read.
CPLEX> Problem name         : C:\Users\Luke\Desktop\competitiveMPEC_1.16\logs\tmpevwylmeg.pyomo.lp
Objective sense      : Maximize
Variables            :   54041  [Nneg: 49,  Box: 22526,  Free: 4368,
                                 Binary: 27098]
Objective nonzeros   :    9676
Linear constraints   :  122116  [Less: 40935,  Greater: 58612,  Equal: 22569]
  Nonzeros           :  288457
  RHS nonzeros       :   66934

Variables            : Min LB: -5000.000        Max UB: 5000.000       
Objective nonzeros   : Min   : 0.1750000        Max   : 731.8583       
Linear constraints   :
  Nonzeros           : Min   : 0.1750000        Max   : 2910000.       
  RHS nonzeros       : Min   : 0.1750000        Max   : 3000000.       
CPLEX> CPXPARAM_Parallel                                -1
CPXPARAM_Simplex_Tolerances_Feasibility          0.01
CPXPARAM_DetTimeLimit                            200000
CPXPARAM_MIP_Tolerances_MIPGap                   0.01
Warning:  No solution found from 1 MIP starts.
Retaining values of one MIP start for possible repair.
Tried aggregator 3 times.
MIP Presolve eliminated 88041 rows and 19665 columns.
MIP Presolve added 3372 rows and 0 columns.
MIP Presolve modified 24501 coefficients.
Aggregator did 12880 substitutions.
Reduced MIP has 24567 rows, 20940 columns, and 68799 nonzeros.
Reduced MIP has 8289 binaries, 0 generals, 0 SOSs, and 0 indicators.
Presolve time = 0.23 sec. (167.88 ticks)
Probing fixed 431 vars, tightened 5733 bounds.
Probing time = 0.06 sec. (21.13 ticks)
Tried aggregator 2 times.
MIP Presolve eliminated 966 rows and 871 columns.
MIP Presolve modified 3052 coefficients.
Aggregator did 45 substitutions.
Reduced MIP has 23556 rows, 20024 columns, and 65836 nonzeros.
Reduced MIP has 7856 binaries, 0 generals, 0 SOSs, and 0 indicators.
Presolve time = 0.11 sec. (87.97 ticks)
Probing fixed 0 vars, tightened 212 bounds.
Probing time = 0.08 sec. (21.15 ticks)
Clique table members: 38648.
MIP emphasis: balance optimality and feasibility.
MIP search method: dynamic search.
Parallel mode: opportunistic, using up to 24 threads.
Root relaxation solution time = 0.30 sec. (265.39 ticks)

        Nodes                                         Cuts/
   Node  Left     Objective  IInf  Best Integer    Best Bound    ItCnt     Gap

      0     0    66008.8372  1498                  66008.8372     6361         
      0     0    65329.6130   440                  Cuts: 1000     6679         
      0     0    65218.1165   295                   Cuts: 813     6957         
      0     0    65173.5125   239                   Cuts: 374     7108         
      0     0    65151.9514   178                    Cuts: 92     7169         
      0     0    65151.9514   178                    Cuts: 25     7182         
      0     0    65151.9514   166                    Cuts: 24     7191         
      0     0    65151.9514   168                    Cuts: 17     7193         
Repair heuristic found nothing.
      0    24    54655.3014   149                    Cuts: 26     7459         
Elapsed time = 5.25 sec. (3818.92 ticks, tree = 0.02 MB, solutions = 0)
    356   104    39403.6335   137                  64434.8622    11471         
    773   318    32939.9949   118                  64434.8622    16277         
   1186   789    41206.1419    76                  64434.8622    19364         
   1701  1133    49714.5854    73                  64434.8622    23863         
*  1878+  596                        50309.6443    64434.8622            28.08%
   2326   447    53131.9758   137    50309.6443    64309.2883    30006   27.83%
   2871   670    53782.9112   154    50309.6443    64142.2815    32796   27.50%
   3439  1004    51449.7891    67    50309.6443    64142.2815    33720   27.50%
   3889  1527    50596.6042    43    50309.6443    64142.2815    35167   27.50%
   5548  2360    51849.0819    83    50309.6443    60510.3525    38662   20.28%
Elapsed time = 12.83 sec. (6768.13 ticks, tree = 20.29 MB, solutions = 2)
   5593  3046        cutoff          50309.6443    54462.0131    52029    8.25%
   5796    40    53623.1911    62    50309.6443    54173.5305    53620    7.68%
   6723    96    53977.3525    41    50309.6443    54146.3963    54286    7.63%
   7883   280    53856.3637    34    50309.6443    54146.3963    55629    7.63%
   9397  1958    53440.6338    31    50309.6443    54104.2313    64225    7.54%
  11106  2955    52955.4412    42    50309.6443    54033.8219    71920    7.40%
  11904  4668    53792.8697    31    50309.6443    53974.9755    82580    7.29%
  12441  5280    50538.4850    11    50309.6443    53973.4738    86089    7.28%
  13877  5908    53626.9354    50    50309.6443    53970.3961    90381    7.28%
  15368  5814    53366.7934    44    50309.6443    53970.3961    89440    7.28%
Elapsed time = 45.59 sec. (21261.20 ticks, tree = 57.35 MB, solutions = 3)
* 15580  6107      integral     0    53813.8538    53970.3961    91522    0.29%
  16335  6682    50342.4514    31    53813.8538    53970.3961    95649    0.29%

Clique cuts applied:  12
Cover cuts applied:  10
Implied bound cuts applied:  57
Flow cuts applied:  352
Mixed integer rounding cuts applied:  93
Gomory fractional cuts applied:  77

Root node processing (before b&c):
  Real time             =    4.75 sec. (3785.84 ticks)
Parallel b&c, 24 threads:
  Real time             =   42.02 sec. (19042.94 ticks)
  Sync time (average)   =    1.62 sec.
  Wait time (average)   =    0.08 sec.
                          ------------
Total (root+branch&cut) =   46.77 sec. (22828.78 ticks)

Solution pool: 3 solutions saved.

MIP - Integer optimal, tolerance (0.01/1e-06):  Objective =  5.3813853818e+04
Current MIP best bound =  5.3955821086e+04 (gap = 141.967, 0.26%)
Solution time =   46.77 sec.  Iterations = 106905  Nodes = 16418 (1356)
Deterministic time = 22828.94 ticks  (488.15 ticks/sec)

CPLEX> Incumbent solution written to file 'C:\Users\Luke\Desktop\competitiveMPEC_1.16\logs\tmp_5ped0jf.cplex.sol'.
CPLEX> Exporting results... 
